c 
c G(n,p) graph
c graph gen seed     : 9187
c number of vertices : 30
c max number of edges: 500
c edge probability   : 0.400000
c data structure     : sparse
c
c           Graph Stats
c number of vertices  : 30
c nonisolated vertices: 30
c number of edges     : 160
c edge density        : 0.367816
c max degree          : 16
c avg degree          : 10.67
c min degree          : 7
p col 30 160
e 1 23
e 1 21
e 1 10
e 1 9
e 1 7
e 1 4
e 1 3
e 2 30
e 2 27
e 2 26
e 2 25
e 2 23
e 2 21
e 2 20
e 2 16
e 2 15
e 2 14
e 2 13
e 2 12
e 2 6
e 3 27
e 3 24
e 3 21
e 3 19
e 3 17
e 3 16
e 3 7
e 3 6
e 4 30
e 4 28
e 4 27
e 4 26
e 4 25
e 4 21
e 4 17
e 4 13
e 4 7
e 5 28
e 5 26
e 5 22
e 5 16
e 5 15
e 5 11
e 5 10
e 5 9
e 5 7
e 5 6
e 6 30
e 6 29
e 6 26
e 6 15
e 6 13
e 6 10
e 6 9
e 6 8
e 6 7
e 7 29
e 7 28
e 7 24
e 7 23
e 7 21
e 7 19
e 7 10
e 7 8
e 8 30
e 8 28
e 8 27
e 8 19
e 8 18
e 8 17
e 8 14
e 8 13
e 8 10
e 8 9
e 9 29
e 9 26
e 9 25
e 9 24
e 9 23
e 9 21
e 9 19
e 9 14
e 9 10
e 10 30
e 10 28
e 10 27
e 10 25
e 10 22
e 10 21
e 10 17
e 10 15
e 10 13
e 11 30
e 11 27
e 11 26
e 11 16
e 11 15
e 11 14
e 11 12
e 12 29
e 12 23
e 12 22
e 12 20
e 12 17
e 12 15
e 12 14
e 13 25
e 13 22
e 13 20
e 13 18
e 13 17
e 13 15
e 14 27
e 14 25
e 14 24
e 14 22
e 14 16
e 15 30
e 15 23
e 15 22
e 15 20
e 15 17
e 16 30
e 16 26
e 16 22
e 16 20
e 16 18
e 16 17
e 17 30
e 17 29
e 17 19
e 18 27
e 18 26
e 18 21
e 18 19
e 19 27
e 19 26
e 19 25
e 19 23
e 19 20
e 20 29
e 20 27
e 20 26
e 20 25
e 20 24
e 22 30
e 22 27
e 22 23
e 23 27
e 23 25
e 24 28
e 24 27
e 24 25
e 25 28
e 25 27
e 26 28
e 26 27
e 27 29
e 28 29
e 29 30
